-20 2 0
8 -22 2 0
3 2 -27 0
-27 -29 0
d -27 -2 -29 0
-3 2 -29 0
2 -29 0
d -3 2 -29 0
3 -29 0
-29 0
-3 -2 0
-2 0
4 0
27 0
-20 0
3 0
-11 0
22 0
18 0
-19 0
13 0
9 0
8 0
-6 0
21 0
17 0
-1 0
-25 0
-24 0
-5 0
14 0
7 0
23 0
26 0
12 0
0
